RT is False
Default write of storage_offers_DA.csv just to have a file (but constraint should be inactive)
Reading model...
...model read.
creating competitive generators file...
...competitive generators recorded.
Loading data...
.. day-ahead data read.
Compiling instance...
...instance created.
Creating Offer Mitigation (model will solve as dispatch if TRUE)...
NOTE: storage offers will not be mitigated
...storage offer mitigation file created
Converting model to MPEC...
...converted
NOTE: initial MIP solve with only storage competitive to get feasible solution
Solving...

Welcome to IBM(R) ILOG(R) CPLEX(R) Interactive Optimizer 12.9.0.0
  with Simplex, Mixed Integer & Barrier Optimizers
5725-A06 5725-A29 5724-Y48 5724-Y49 5724-Y54 5724-Y55 5655-Y21
Copyright IBM Corp. 1988, 2019.  All Rights Reserved.

Type 'help' for a list of available commands.
Type 'help' followed by a command name for more
information on commands.

CPLEX> Logfile 'cplex.log' closed.
Logfile 'C:\Users\Luke\Desktop\test919\logs\tmpjjs12plc.cplex.log' open.
CPLEX> New value for parallel optimization mode: -1
CPLEX> New value for mixed integer optimality gap tolerance: 0.01
CPLEX> New value for integrality tolerance: 1e-09
CPLEX> New value for feasibility tolerance: 0.01
CPLEX> New value for deterministic time limit in ticks: 75000
CPLEX> Problem 'C:\Users\Luke\Desktop\test919\logs\tmpl2wytgkl.pyomo.lp' read.
Read time = 0.19 sec. (14.73 ticks)
CPLEX> Problem name         : C:\Users\Luke\Desktop\test919\logs\tmpl2wytgkl.pyomo.lp
Objective sense      : Maximize
Variables            :   53805  [Nneg: 1,  Box: 22000,  Free: 4464,
                                 Binary: 27340]
Objective nonzeros   :    9039
Linear constraints   :  123205  [Less: 41346,  Greater: 59096,  Equal: 22763]
  Nonzeros           :  291763
  RHS nonzeros       :   67501

Variables            : Min LB: -5000.000        Max UB: 1000000.       
Objective nonzeros   : Min   : 0.1000000        Max   : 2500.000       
Linear constraints   :
  Nonzeros           : Min   : 0.1000000        Max   : 1000000.       
  RHS nonzeros       : Min   : 0.1000000        Max   : 1000000.       
CPLEX> CPXPARAM_Parallel                                -1
CPXPARAM_Simplex_Tolerances_Feasibility          0.01
CPXPARAM_DetTimeLimit                            75000
CPXPARAM_MIP_Tolerances_MIPGap                   0.01
CPXPARAM_MIP_Tolerances_Integrality              1.0000000000000001e-09
Tried aggregator 3 times.
MIP Presolve eliminated 88624 rows and 18972 columns.
MIP Presolve added 3392 rows and 0 columns.
MIP Presolve modified 24837 coefficients.
Aggregator did 12986 substitutions.
Reduced MIP has 24987 rows, 21315 columns, and 71164 nonzeros.
Reduced MIP has 8425 binaries, 0 generals, 0 SOSs, and 0 indicators.
Presolve time = 0.23 sec. (174.00 ticks)
Probing fixed 394 vars, tightened 2841 bounds.
Probing time = 1.48 sec. (897.50 ticks)
Tried aggregator 2 times.
MIP Presolve eliminated 892 rows and 789 columns.
MIP Presolve modified 2223 coefficients.
Aggregator did 33 substitutions.
Reduced MIP has 24062 rows, 20493 columns, and 68487 nonzeros.
Reduced MIP has 8031 binaries, 0 generals, 0 SOSs, and 0 indicators.
Presolve time = 0.09 sec. (72.12 ticks)
Probing time = 0.03 sec. (15.95 ticks)
Clique table members: 6384.
MIP emphasis: balance optimality and feasibility.
MIP search method: dynamic search.
Parallel mode: opportunistic, using up to 24 threads.
Root relaxation solution time = 0.44 sec. (321.65 ticks)

        Nodes                                         Cuts/
   Node  Left     Objective  IInf  Best Integer    Best Bound    ItCnt     Gap

      0     0     3976.4382  1724                   3976.4382     7162         
      0     0     3976.4382   672                   Cuts: 654     7492         
      0     0     3976.0140   542                   Cuts: 417     7697         
      0     0     3975.5897   478                   Cuts: 208     7814         
      0     0     3975.5897   433                   Cuts: 122     7876         
      0     0     3975.5897   399                    Cuts: 73     7921         
      0     0     3975.5897   386                    Cuts: 44     7944         
      0     0     3975.5897   366                    Cuts: 44     7962         
      0     0     3975.5897   359                    Cuts: 22     7972         
*     0     9      integral     0     3966.1192     3966.2931     8005    0.00%
      0     9     3966.1192     0     3966.1192     3966.2931     8005    0.00%
Elapsed time = 8.80 sec. (6306.80 ticks, tree = 0.02 MB, solutions = 2)
*    30    11      integral     0     3966.1192     3966.2931     8005    0.00%

Clique cuts applied:  19
Implied bound cuts applied:  28
Flow cuts applied:  338
Mixed integer rounding cuts applied:  8
Gomory fractional cuts applied:  33

Root node processing (before b&c):
  Real time             =    8.34 sec. (6278.01 ticks)
Parallel b&c, 24 threads:
  Real time             =    0.61 sec. (143.33 ticks)
  Sync time (average)   =    0.23 sec.
  Wait time (average)   =    0.00 sec.
                          ------------
Total (root+branch&cut) =    8.95 sec. (6421.34 ticks)

Solution pool: 2 solutions saved.

MIP - Integer optimal, tolerance (0.01/1e-06):  Objective =  3.9661192138e+03
Current MIP best bound =  3.9662930626e+03 (gap = 0.173849, 0.00%)
Solution time =    8.95 sec.  Iterations = 8031  Nodes = 31 (1)
Deterministic time = 6421.49 ticks  (717.16 ticks/sec)

CPLEX> Incumbent solution written to file 'C:\Users\Luke\Desktop\test919\logs\tmpgl5gkeha.cplex.sol'.
CPLEX> NOTE: no warmstart specified for MIP iteration, default behavior is true
NOTE: resolving with all competitive generators using storage-only solution to warmstart
Solving...

Welcome to IBM(R) ILOG(R) CPLEX(R) Interactive Optimizer 12.9.0.0
  with Simplex, Mixed Integer & Barrier Optimizers
5725-A06 5725-A29 5724-Y48 5724-Y49 5724-Y54 5724-Y55 5655-Y21
Copyright IBM Corp. 1988, 2019.  All Rights Reserved.

Type 'help' for a list of available commands.
Type 'help' followed by a command name for more
information on commands.

CPLEX> Logfile 'cplex.log' closed.
Logfile 'C:\Users\Luke\Desktop\test919\logs\tmpz0haedwh.cplex.log' open.
CPLEX> New value for parallel optimization mode: -1
CPLEX> New value for mixed integer optimality gap tolerance: 0.01
CPLEX> New value for integrality tolerance: 1e-09
CPLEX> New value for feasibility tolerance: 0.01
CPLEX> New value for deterministic time limit in ticks: 75000
CPLEX> Problem 'C:\Users\Luke\Desktop\test919\logs\tmpcp11obqd.pyomo.lp' read.
Read time = 0.19 sec. (14.75 ticks)
CPLEX> MIP start file 'C:\Users\Luke\Desktop\test919\logs\tmpztvvpvi5.cplex.mst' read.
CPLEX> Problem name         : C:\Users\Luke\Desktop\test919\logs\tmpcp11obqd.pyomo.lp
Objective sense      : Maximize
Variables            :   54525  [Nneg: 1,  Box: 22720,  Free: 4464,
                                 Binary: 27340]
Objective nonzeros   :    9759
Linear constraints   :  123205  [Less: 41346,  Greater: 59096,  Equal: 22763]
  Nonzeros           :  291763
  RHS nonzeros       :   67501

Variables            : Min LB: -5000.000        Max UB: 1000000.       
Objective nonzeros   : Min   : 0.1000000        Max   : 2500.000       
Linear constraints   :
  Nonzeros           : Min   : 0.1000000        Max   : 1000000.       
  RHS nonzeros       : Min   : 0.1000000        Max   : 1000000.       
CPLEX> CPXPARAM_Parallel                                -1
CPXPARAM_Simplex_Tolerances_Feasibility          0.01
CPXPARAM_DetTimeLimit                            75000
CPXPARAM_MIP_Tolerances_MIPGap                   0.01
CPXPARAM_MIP_Tolerances_Integrality              1.0000000000000001e-09
Warning:  No solution found from 1 MIP starts.
Retaining values of one MIP start for possible repair.
Tried aggregator 3 times.
MIP Presolve eliminated 88624 rows and 19692 columns.
MIP Presolve added 3392 rows and 0 columns.
MIP Presolve modified 24837 coefficients.
Aggregator did 12986 substitutions.
Reduced MIP has 24987 rows, 21315 columns, and 71164 nonzeros.
Reduced MIP has 8425 binaries, 0 generals, 0 SOSs, and 0 indicators.
Presolve time = 0.23 sec. (174.35 ticks)
Probing fixed 394 vars, tightened 2841 bounds.
Probing time = 1.50 sec. (897.50 ticks)
Tried aggregator 2 times.
MIP Presolve eliminated 892 rows and 789 columns.
MIP Presolve modified 2223 coefficients.
Aggregator did 33 substitutions.
Reduced MIP has 24062 rows, 20493 columns, and 68487 nonzeros.
Reduced MIP has 8031 binaries, 0 generals, 0 SOSs, and 0 indicators.
Presolve time = 0.09 sec. (72.12 ticks)
Probing time = 0.03 sec. (15.95 ticks)
Clique table members: 6384.
MIP emphasis: balance optimality and feasibility.
MIP search method: dynamic search.
Parallel mode: opportunistic, using up to 24 threads.
Root relaxation solution time = 0.42 sec. (321.65 ticks)

        Nodes                                         Cuts/
   Node  Left     Objective  IInf  Best Integer    Best Bound    ItCnt     Gap

      0     0     3976.4382  1724                   3976.4382     7162         
      0     0     3976.4382   672                   Cuts: 654     7492         
      0     0     3976.0140   542                   Cuts: 417     7697         
      0     0     3975.5897   478                   Cuts: 208     7814         
      0     0     3975.5897   433                   Cuts: 122     7876         
      0     0     3975.5897   399                    Cuts: 73     7921         
      0     0     3975.5897   386                    Cuts: 44     7944         
      0     0     3975.5897   366                    Cuts: 44     7962         
      0     0     3975.5897   359                    Cuts: 22     7972         
Repair heuristic found nothing.
*     0     9      integral     0     3966.1192     3966.2931     8005    0.00%
      0     9     3966.1192     0     3966.1192     3966.2931     8005    0.00%
Elapsed time = 9.38 sec. (6524.39 ticks, tree = 0.02 MB, solutions = 2)
*    26    10      integral     0     3966.1192     3966.2931     8004    0.00%

Clique cuts applied:  19
Implied bound cuts applied:  28
Flow cuts applied:  340
Mixed integer rounding cuts applied:  8
Gomory fractional cuts applied:  33

Root node processing (before b&c):
  Real time             =    8.89 sec. (6495.84 ticks)
Parallel b&c, 24 threads:
  Real time             =    0.64 sec. (187.96 ticks)
  Sync time (average)   =    0.27 sec.
  Wait time (average)   =    0.00 sec.
                          ------------
Total (root+branch&cut) =    9.53 sec. (6683.79 ticks)

Solution pool: 2 solutions saved.

MIP - Integer optimal, tolerance (0.01/1e-06):  Objective =  3.9661192138e+03
Current MIP best bound =  3.9662930626e+03 (gap = 0.173849, 0.00%)
Solution time =    9.55 sec.  Iterations = 8023  Nodes = 27 (1)
Deterministic time = 6683.95 ticks  (700.11 ticks/sec)

CPLEX> Incumbent solution written to file 'C:\Users\Luke\Desktop\test919\logs\tmppz6std96.cplex.sol'.
CPLEX> Exporting results... 
